0000000000000000
0011111000000000
0111111110000000
0111111111000000
0110011111100000
0000000111100000
0000000111100000
0000000111100000
0000000111100000
0000000111100000
0000000111100000
0000001111100000
0111111111000000
0111111111000000
0111111100000000
0000000000000000
